pRobustCbss/GLKH-1.1/TMP/mtspf.pid8905.atsp
NAME : mtspf.pid8905.gtsp
TYPE : ATSP
DIMENSION : 27
EDGE_WEIGHT_TYPE : EXPLICIT
EDGE_WEIGHT_FORMAT : FULL_MATRIX
EDGE_WEIGHT_SECTION
999999 5368709 5468708 5368709 5368709 5368709 5368709 5368717 5368716 5368715 5368716 5368709 5368709 5368709 5368709 5368709 5368709 5368709 5268710 5368717 5368716 5368715 5368716 5368709 5368709 5368709 5368709 
5468708 999999 5368709 5368709 5368709 5368709 5368709 5368709 5368709 5368709 5368709 5368722 5368723 5368722 5368721 5368709 5368709 5368709 5368723 5368709 5368709 5368709 5368709 5368709 5368709 5368709 5368709 
5368709 5468708 999999 5368709 5368709 5368709 5368709 5368709 5368709 5368709 5368709 5368709 5368709 5368709 5368709 5368734 5368733 5368732 5368733 5368709 5368709 5368709 5368709 5368709 5368709 5368709 5368709 
5368709 5368709 5368709 999999 0 10737418 10737418 5368709 5368709 5368709 5368709 5368709 5368709 5368709 5368709 5368709 5368727 5368726 5368727 5368709 5368709 5368709 5368709 5368726 5368725 5368724 5368725 
5368709 5368709 5368709 10737418 999999 0 10737418 5368709 5368709 5368709 5368709 5368709 5368709 5368709 5368709 5368709 5368726 5368709 5368709 5368709 5368709 5368709 5368709 5368725 5368724 5368725 5368726 
5368709 5368709 5368709 10737418 10737418 999999 0 5368709 5368709 5368709 5368709 5368709 5368709 5368709 5368709 5368709 5368727 5368709 5368709 5368709 5368709 5368709 5368709 5368726 5368725 5368726 5368727 
5368709 5368709 5368709 0 10737418 10737418 999999 5368709 5368709 5368709 5368709 5368709 5368709 5368709 5368709 5368709 5368728 5368727 5368709 5368709 5368709 5368709 5368709 5368727 5368726 5368725 5368726 
5368709 5368709 5368709 5368709 5368709 5368709 5368709 999999 0 10737418 10737418 5368721 5368722 5368723 5368722 5368709 5368709 5368709 5368709 5368712 5368713 5368714 5368713 5368709 5368709 5368709 5368709 
5368709 5368709 5368709 5368709 5368709 5368709 5368709 10737418 999999 0 10737418 5368722 5368723 5368709 5368723 5368709 5368709 5368709 5368709 5368713 5368714 5368715 5368714 5368709 5368709 5368709 5368709 
5368709 5368709 5368709 5368709 5368709 5368709 5368709 10737418 10737418 999999 0 5368723 5368722 5368723 5368724 5368709 5368709 5368709 5368709 5368714 5368713 5368714 5368715 5368709 5368709 5368709 5368709 
5368709 5368709 5368709 5368709 5368709 5368709 5368709 0 10737418 10737418 999999 5368722 5368721 5368722 5368723 5368709 5368709 5368709 5368709 5368713 5368712 5368713 5368714 5368709 5368709 5368709 5368709 
5368709 5368709 5368709 5368709 5368709 5368709 5368709 5368723 5368709 5368723 5368722 999999 0 10737418 10737418 5368709 5368709 5368709 5368709 5368721 5368722 5368721 5368720 5368709 5368709 5368709 5368709 
5368709 5368709 5368709 5368709 5368709 5368709 5368709 5368722 5368723 5368722 5368721 10737418 999999 0 10737418 5368709 5368709 5368709 5368709 5368720 5368721 5368720 5368719 5368709 5368709 5368709 5368709 
5368709 5368709 5368709 5368709 5368709 5368709 5368709 5368709 5368709 5368721 5368722 10737418 10737418 999999 0 5368709 5368709 5368709 5368709 5368721 5368720 5368719 5368720 5368709 5368709 5368709 5368709 
5368709 5368709 5368709 5368709 5368709 5368709 5368709 5368709 5368709 5368722 5368709 0 10737418 10737418 999999 5368709 5368709 5368709 5368709 5368722 5368721 5368720 5368721 5368709 5368709 5368709 5368709 
5368709 5368709 5368709 5368728 5368729 5368728 5368727 5368709 5368709 5368709 5368709 5368709 5368709 5368709 5368709 999999 0 10737418 10737418 5368709 5368709 5368709 5368730 5368730 5368709 5368730 5368729 
5368709 5368709 5368709 5368727 5368728 5368709 5368728 5368709 5368709 5368709 5368709 5368709 5368709 5368709 5368709 10737418 999999 0 10737418 5368709 5368709 5368709 5368709 5368709 5368709 5368729 5368728 
5368709 5368709 5368709 5368726 5368727 5368728 5368727 5368709 5368709 5368709 5368709 5368709 5368709 5368709 5368709 10737418 10737418 999999 0 5268710 5368709 5368709 5368709 5368709 5368709 5368709 5368709 
5368709 5368709 5368709 5368727 5368728 5368727 5368726 5368709 5368709 5368709 5368709 5368709 5368709 5368709 5368709 0 10737418 10737418 999999 5368709 5368709 5368730 5368709 5368709 5368730 5368729 5368730 
5368709 5368709 5368709 5468708 5468708 5468708 5468708 5368714 5368715 5368714 5368713 5368719 5368720 5368721 5368720 5368709 5368709 5368709 5368709 999999 0 10737418 10737418 5368709 5368709 5368709 5368709 
5368709 5368709 5368709 5468708 5468708 5468708 5468708 5368713 5368714 5368713 5368712 5368720 5368721 5368722 5368721 5368709 5368709 5368709 5368709 10737418 999999 0 10737418 5368709 5368709 5368709 5368709 
5368709 5368709 5368709 5468708 5468708 5468708 5468708 5368714 5368713 5368712 5368713 5368721 5368720 5368721 5368722 5368709 5368709 5368709 5368709 10737418 10737418 999999 0 5368709 5368709 5368709 5368709 
5368709 5368709 5368709 5468708 5468708 5468708 5468708 5368715 5368714 5368713 5368714 5368720 5368719 5368720 5368721 5368709 5368709 5368709 5368709 0 10737418 10737418 999999 5368709 5368709 5368709 5368709 
5368709 5368709 5368709 5368726 5368727 5368726 5368725 5368709 5368709 5368709 5368709 5368709 5368709 5368709 5368709 5368709 5368709 5368709 5368709 5368709 5368709 5368709 5368709 999999 0 10737418 10737418 
5368709 5368709 5368709 5368725 5368726 5368727 5368726 5368709 5368729 5368730 5368709 5368709 5368709 5368709 5368709 5368729 5368709 5368709 5368709 5368709 5368729 5368730 5368709 10737418 999999 0 10737418 
5368709 5368709 5368709 5368724 5368725 5368726 5368725 5368709 5368730 5368709 5368709 5368709 5368709 5368709 5368709 5368730 5368729 5368709 5368709 5368709 5368730 5368709 5368709 10737418 10737418 999999 0 
5368709 5368709 5368709 5368725 5368726 5368725 5368724 5368709 5368709 5368709 5368709 5368709 5368709 5368709 5368709 5368709 5368709 5368709 5368709 5368709 5368709 5368709 5368709 0 10737418 10737418 999999 
EOF
