pRobustCbss/GLKH-1.1/TMP/mtspf.pid8905.tour
NAME : mtspf.pid8905.gtsp.48118383.tour
COMMENT : Length = 48118383
COMMENT : Found by LKH [Keld Helsgaun] Fri Jan 10 23:37:21 2025
TYPE : TOUR
DIMENSION : 27
TOUR_SECTION
1
19
16
17
18
20
21
22
23
3
25
26
27
24
9
10
11
8
2
7
4
5
6
15
12
13
14
-1
EOF
